SCIP version 5.0.0 [precision: 8 byte] [memory: block] [mode: optimized] [LP solver: NONE] [GitHash: 3bbd232]
Copyright (C) 2002-2017 Konrad-Zuse-Zentrum fuer Informationstechnik Berlin (ZIB)

External codes: 
  Readline EditLine w  GNU library for command line editing (gnu.org/s/readline)
  CppAD 20160000.1     Algorithmic Differentiation of C++ algorithms developed by B. Bell (www.coin-or.org/CppAD)
  ZLIB 1.2.5           General purpose compression library by J. Gailly and M. Adler (zlib.net)
  GMP 6.1.2            GNU Multiple Precision Arithmetic Library developed by T. Granlund (gmplib.org)

user parameter file <scip.set> not found - using default parameters

read problem <../../Split_data/output/statG/2/4_sample_statG.logreg>
============

File name	:	../../Split_data/output/statG/2/4_sample_statG.logreg
Problem name 	:	4_sample_statG
Number of data	:	800
Number of var	:	61
The given data has linear dependence
13 sets of column vector are linearly dependent:

[dim=1] time: 0.035664
[dim=2] time: 0.077044
[dim=3] time: 0.117802
[dim=4] time: 0.161326
[dim=5] time: 0.212048
[dim=6] time: 0.259297
[dim=7] time: 0.301894
[dim=8] time: 0.343799
[dim=9] time: 0.3848
[dim=10] time: 0.4266
[dim=11] time: 0.467029
[dim=12] time: 0.506457
[dim=13] time: 0.547531
[dim=14] time: 0.590477
[dim=15] time: 0.631651
[dim=16] time: 0.673494
[dim=17] time: 0.721858
[dim=18] time: 0.76142
[dim=19] time: 0.800632
[dim=20] time: 0.842837
[dim=21] time: 0.884905
[dim=22] time: 0.92712
[dim=23] time: 0.975413
[dim=24] time: 1.01314
[dim=25] Time of forward = 1.06789sec.
AIC: 768.736
k: 24

[dim=48] time: 0.115328
[dim=47] time: 0.193912
[dim=46] time: 0.273692
[dim=45] time: 0.345411
[dim=44] time: 0.424472
[dim=43] time: 0.487318
[dim=42] time: 0.555036
[dim=41] time: 0.613493
[dim=40] time: 0.668178
[dim=39] time: 0.725978
[dim=38] time: 0.783042
[dim=37] time: 0.835963
[dim=36] time: 0.878641
[dim=35] time: 0.922261
[dim=34] time: 0.977661
[dim=33] time: 1.01704
[dim=32] time: 1.06737
[dim=31] Time of backward = 1.10756sec.
AIC: 780.837
k: 32
